p cnf 30 82 
-1 2 4 0 
-1 -2 -4 0 
-2 1 10 0 
-10 3 5 0 
-2 -1 -3 0 
-2 -1 -5 0 
-2 -3 -5 0 
-3 2 6 0 
-3 -2 -6 0 
-4 7 11 0 
-11 5 1 0 
-4 -7 -5 0 
-4 -7 -1 0 
-4 -5 -1 0 
-5 -2 -4 0 
-5 -2 -6 0 
-5 -2 -8 0 
-5 2 12 0 
-12 4 13 0 
-13 6 8 0 
-5 -4 -6 0 
-5 -4 -8 0 
-5 -6 -8 0 
-6 9 14 0 
-14 5 3 0 
-6 -9 -5 0 
-6 -9 -3 0 
-6 -5 -3 0 
-7 8 4 0 
-7 -8 -4 0 
-8 7 15 0 
-15 9 5 0 
-8 -7 -9 0 
-8 -7 -5 0 
-8 -9 -5 0 
-9 8 6 0 
-9 -8 -6 0 
1 2 16 0 
-16 3 17 0 
-17 4 5 0 
1 2 18 0 
-18 3 19 0 
-19 4 6 0 
1 2 20 0 
-20 3 21 0 
-21 5 6 0 
1 2 22 0 
-22 4 23 0 
-23 5 6 0 
1 3 24 0 
-24 4 25 0 
-25 5 6 0 
2 3 26 0 
-26 4 27 0 
-27 5 6 0 
-1 -2 -3 0 
-1 -2 -4 0 
-1 -2 -5 0 
-1 -2 -6 0 
-1 -3 -4 0 
-1 -3 -5 0 
-1 -3 -6 0 
-1 -4 -5 0 
-1 -4 -6 0 
-1 -5 -6 0 
-2 -3 -4 0 
-2 -3 -5 0 
-2 -3 -6 0 
-2 -4 -5 0 
-2 -4 -6 0 
-2 -5 -6 0 
-3 -4 -5 0 
-3 -4 -6 0 
-3 -5 -6 0 
-4 -5 -6 0 
7 8 28 0 
7 8 -28 0 
7 9 29 0 
7 9 -29 0 
8 9 30 0 
8 9 -30 0 
-7 -8 -9 0 
